c FILE /home/rafael/Documents/HappySet/MIHS/inputs/happygen/output/graph_d_regular_k3_p0.1_v50_20241127_082555.txt
c SOURCE This is a d-regular graph formed for the happy graph colouring problem.
c DESCRIPTION It was generated using the problem generator of Rhyd Lewis
c
c GRAPH STATS
c Seed                             = 574751064
c Number of Nodes                  = 50
c Number of colours k              = 3
c Number of pre-assignments        = 5
c Degree of all vertices           = 6
c Density                          = 0.122449
c 
c The degrees of nodes 1 to 50, respectively, are as follows 
c [6, 6, 6, 6, 6, 6, 6, 6, 6, 6, 6, 6, 6, 6, 6, 6, 6, 6, 6, 6, 6, 6, 6, 6, 6, 6, 
c  6, 6, 6, 6, 6, 6, 6, 6, 6, 6, 6, 6, 6, 6, 6, 6, 6, 6, 6, 6, 6, 6, 6, 6] 
c  
p edge 50 150 3
e 1 6
e 1 10
e 1 23
e 1 31
e 1 32
e 1 46
e 2 9
e 2 11
e 2 17
e 2 36
e 2 40
e 2 45
e 3 4
e 3 13
e 3 31
e 3 35
e 3 42
e 3 44
e 4 9
e 4 23
e 4 32
e 4 42
e 4 48
e 5 15
e 5 23
e 5 28
e 5 38
e 5 44
e 5 48
e 6 12
e 6 20
e 6 40
e 6 41
e 6 44
e 7 15
e 7 16
e 7 20
e 7 44
e 7 45
e 7 47
e 8 9
e 8 16
e 8 23
e 8 26
e 8 42
e 8 45
e 9 22
e 9 25
e 9 34
e 10 16
e 10 24
e 10 28
e 10 29
e 10 35
e 11 21
e 11 27
e 11 33
e 11 37
e 11 38
e 12 25
e 12 26
e 12 28
e 12 46
e 12 50
e 13 21
e 13 23
e 13 29
e 13 33
e 13 39
e 14 17
e 14 31
e 14 35
e 14 38
e 14 47
e 14 50
e 15 20
e 15 28
e 15 33
e 15 38
e 16 36
e 16 42
e 16 49
e 17 21
e 17 37
e 17 44
e 17 45
e 18 28
e 18 30
e 18 33
e 18 39
e 18 43
e 18 48
e 19 27
e 19 30
e 19 32
e 19 39
e 19 46
e 19 49
e 20 40
e 20 45
e 20 50
e 21 36
e 21 43
e 21 47
e 22 30
e 22 31
e 22 36
e 22 43
e 22 48
e 23 41
e 24 25
e 24 36
e 24 41
e 24 44
e 24 45
e 25 30
e 25 46
e 25 49
e 26 34
e 26 37
e 26 38
e 26 50
e 27 28
e 27 37
e 27 42
e 27 43
e 29 30
e 29 37
e 29 42
e 29 49
e 30 41
e 31 46
e 31 48
e 32 34
e 32 43
e 32 47
e 33 43
e 33 49
e 34 35
e 34 41
e 34 47
e 35 39
e 35 40
e 36 49
e 37 40
e 38 41
e 39 40
e 39 50
e 46 47
e 48 50
n 3 2
n 25 1
n 32 3
n 40 2
n 45 3
